
  22    0


   0  12 2 3 4 6 7 8 9 10 11 19 20 21 
   8   4 18 13 12 5 
   9   3 15 13 5 
   9   3 17 16 14 
   9   1 14 
   2   1 15 
   8   1 13 
   9   1 13 
   9   1 12 
   3   1 12 
   7   1 12 
   9   1 22
   1   1 22
   5   1 22
  10   1 22
   8   1 22
   5   1 22
  10   1 22
   8   1 22
   6   1 22
   9   1 22
   0   0 
